60
1041
10
11
41
19
35
11
62
4
34
34
65
0 1
0 2
0 3
0 4
0 6
0 7
0 11
0 13
0 15
0 16
0 19
0 20
0 24
0 26
0 29
0 30
0 31
0 32
0 33
0 34
0 36
0 42
0 43
0 47
0 49
0 50
0 51
0 52
0 54
0 56
0 57
1 3
1 4
1 5
1 6
1 7
1 9
1 11
1 12
1 13
1 14
1 15
1 17
1 19
1 21
1 22
1 24
1 25
1 26
1 28
1 29
1 30
1 31
1 32
1 34
1 35
1 38
1 39
1 41
1 42
1 43
1 46
1 47
1 48
1 49
1 50
1 53
1 54
1 57
1 58
1 59
2 3
2 4
2 7
2 8
2 10
2 11
2 12
2 13
2 14
2 15
2 17
2 19
2 22
2 24
2 25
2 27
2 29
2 30
2 32
2 33
2 35
2 36
2 38
2 40
2 42
2 43
2 44
2 49
2 50
2 53
2 54
2 56
2 57
2 58
3 4
3 5
3 9
3 11
3 14
3 16
3 17
3 18
3 19
3 22
3 24
3 25
3 26
3 27
3 28
3 30
3 31
3 35
3 36
3 37
3 38
3 39
3 40
3 41
3 43
3 44
3 47
3 48
3 51
3 54
3 57
3 58
3 59
4 7
4 9
4 10
4 14
4 17
4 18
4 19
4 20
4 23
4 24
4 26
4 29
4 31
4 33
4 34
4 37
4 40
4 47
4 48
4 51
4 52
4 53
4 55
4 58
4 59
5 6
5 8
5 11
5 12
5 16
5 17
5 19
5 20
5 22
5 26
5 27
5 28
5 29
5 30
5 31
5 33
5 36
5 38
5 39
5 40
5 42
5 43
5 44
5 45
5 46
5 52
5 55
5 56
5 57
6 7
6 8
6 9
6 10
6 12
6 13
6 14
6 16
6 18
6 19
6 20
6 21
6 22
6 23
6 24
6 26
6 27
6 30
6 31
6 32
6 33
6 36
6 37
6 39
6 40
6 41
6 42
6 45
6 46
6 47
6 48
6 51
6 52
6 53
6 54
6 56
6 59
7 9
7 10
7 11
7 14
7 15
7 18
7 19
7 20
7 21
7 22
7 23
7 26
7 29
7 31
7 32
7 34
7 37
7 38
7 40
7 42
7 43
7 44
7 45
7 46
7 48
7 50
7 53
7 54
7 56
7 57
8 10
8 11
8 12
8 13
8 14
8 15
8 18
8 19
8 23
8 26
8 30
8 31
8 33
8 34
8 36
8 37
8 39
8 40
8 41
8 42
8 43
8 44
8 46
8 47
8 49
8 50
8 53
8 54
8 55
8 57
8 59
9 10
9 12
9 13
9 14
9 18
9 19
9 24
9 26
9 27
9 29
9 32
9 33
9 34
9 35
9 37
9 39
9 40
9 41
9 43
9 44
9 45
9 48
9 53
9 54
9 55
9 56
9 58
9 59
10 11
10 17
10 18
10 19
10 21
10 24
10 25
10 26
10 28
10 29
10 31
10 32
10 35
10 37
10 40
10 41
10 44
10 45
10 47
10 48
10 51
10 53
10 54
10 55
10 58
10 59
11 12
11 13
11 14
11 15
11 16
11 18
11 19
11 23
11 24
11 25
11 26
11 27
11 28
11 32
11 36
11 37
11 38
11 41
11 43
11 44
11 47
11 48
11 50
11 51
11 54
11 55
11 56
11 57
12 14
12 16
12 18
12 19
12 21
12 23
12 24
12 25
12 26
12 27
12 28
12 30
12 34
12 37
12 39
12 40
12 42
12 44
12 45
12 46
12 47
12 51
12 54
12 55
12 56
12 58
13 14
13 15
13 16
13 17
13 19
13 20
13 21
13 24
13 25
13 26
13 27
13 30
13 32
13 33
13 34
13 36
13 37
13 40
13 43
13 44
13 45
13 50
13 52
13 53
13 54
13 59
14 15
14 16
14 17
14 18
14 19
14 20
14 23
14 27
14 28
14 30
14 31
14 34
14 35
14 36
14 37
14 38
14 42
14 44
14 45
14 49
14 51
14 52
14 54
14 55
14 56
14 57
14 58
14 59
15 16
15 17
15 18
15 21
15 22
15 23
15 24
15 25
15 28
15 31
15 35
15 37
15 39
15 41
15 42
15 43
15 45
15 50
15 51
15 54
15 55
15 57
15 59
16 17
16 20
16 21
16 23
16 25
16 26
16 28
16 33
16 34
16 36
16 37
16 38
16 39
16 40
16 41
16 43
16 44
16 45
16 47
16 49
16 50
16 53
16 56
16 57
16 58
16 59
17 18
17 19
17 20
17 21
17 24
17 27
17 31
17 32
17 33
17 35
17 38
17 39
17 40
17 42
17 43
17 44
17 46
17 49
17 50
17 53
18 19
18 24
18 25
18 27
18 28
18 29
18 32
18 33
18 34
18 35
18 37
18 38
18 39
18 40
18 41
18 42
18 44
18 45
18 47
18 48
18 50
18 54
18 55
18 58
18 59
19 20
19 21
19 22
19 25
19 26
19 28
19 29
19 31
19 32
19 33
19 35
19 37
19 39
19 40
19 41
19 44
19 45
19 47
19 48
19 49
19 52
19 53
19 54
19 55
19 58
19 59
20 22
20 24
20 27
20 30
20 31
20 34
20 35
20 36
20 38
20 39
20 40
20 41
20 44
20 47
20 48
20 49
20 51
20 52
20 54
20 55
20 59
21 25
21 27
21 29
21 32
21 33
21 35
21 39
21 40
21 41
21 42
21 45
21 46
21 47
21 50
21 52
21 55
21 56
21 57
21 58
22 23
22 24
22 25
22 26
22 27
22 29
22 30
22 31
22 32
22 33
22 37
22 41
22 44
22 45
22 46
22 47
22 48
22 49
22 51
22 52
22 53
22 55
22 57
23 24
23 25
23 26
23 27
23 28
23 29
23 31
23 33
23 34
23 35
23 37
23 38
23 40
23 41
23 42
23 44
23 45
23 46
23 47
23 48
23 49
23 50
23 51
23 52
23 54
23 55
23 58
24 26
24 28
24 30
24 31
24 32
24 33
24 34
24 38
24 39
24 40
24 41
24 45
24 46
24 47
24 48
24 52
24 53
24 55
24 57
24 58
25 26
25 31
25 32
25 34
25 35
25 36
25 37
25 38
25 39
25 41
25 42
25 43
25 44
25 46
25 48
25 50
25 51
25 53
25 55
25 57
25 58
25 59
26 27
26 28
26 29
26 30
26 31
26 33
26 34
26 35
26 36
26 37
26 40
26 41
26 44
26 46
26 51
26 52
26 53
26 55
26 56
26 59
27 29
27 30
27 31
27 32
27 33
27 34
27 38
27 40
27 42
27 43
27 44
27 48
27 49
27 50
27 51
27 52
27 53
27 54
27 55
27 56
27 57
27 58
28 29
28 31
28 32
28 34
28 35
28 36
28 37
28 38
28 41
28 42
28 44
28 46
28 50
28 51
28 52
28 53
28 54
28 55
28 58
28 59
29 30
29 31
29 32
29 34
29 35
29 37
29 38
29 39
29 40
29 41
29 43
29 45
29 47
29 51
29 54
29 57
29 58
30 31
30 32
30 34
30 36
30 37
30 38
30 39
30 43
30 44
30 45
30 48
30 49
30 52
30 53
30 55
30 57
30 58
31 32
31 33
31 34
31 35
31 36
31 37
31 38
31 41
31 42
31 44
31 49
31 51
31 52
31 53
31 55
31 56
31 57
31 58
32 33
32 36
32 37
32 38
32 40
32 41
32 43
32 46
32 47
32 50
32 52
32 53
32 56
32 57
32 58
33 36
33 38
33 39
33 43
33 48
33 51
33 52
33 53
33 54
33 56
33 57
33 58
34 35
34 38
34 39
34 40
34 41
34 44
34 45
34 46
34 47
34 49
34 50
34 52
34 53
34 54
34 56
34 57
34 59
35 36
35 37
35 40
35 41
35 42
35 43
35 44
35 46
35 47
35 48
35 49
35 51
35 52
35 54
35 56
35 57
35 58
35 59
36 37
36 38
36 43
36 45
36 46
36 48
36 50
36 52
36 53
36 55
36 56
36 58
37 38
37 41
37 44
37 45
37 46
37 48
37 50
37 51
37 53
37 56
37 58
37 59
38 39
38 40
38 41
38 42
38 45
38 48
38 50
38 51
38 54
38 57
38 58
39 40
39 41
39 43
39 44
39 49
39 51
39 52
39 54
39 55
39 59
40 42
40 46
40 47
40 49
40 50
40 51
40 53
40 55
40 56
40 57
40 58
41 43
41 46
41 47
41 49
41 50
41 53
41 56
41 57
42 43
42 44
42 46
42 47
42 48
42 50
42 51
42 52
42 53
42 54
42 55
42 56
43 45
43 48
43 49
43 50
43 51
43 52
43 53
43 54
43 55
43 56
43 57
43 58
43 59
44 45
44 46
44 47
44 48
44 50
44 51
44 52
44 53
44 54
44 55
44 59
45 46
45 48
45 50
45 51
45 52
45 54
45 55
45 56
45 59
46 47
46 48
46 52
46 53
46 54
46 57
47 48
47 51
47 52
47 57
47 59
48 49
48 52
48 54
48 57
48 58
48 59
49 50
49 52
49 53
49 54
49 55
49 57
49 58
50 52
50 53
50 54
50 55
50 56
50 57
50 59
51 54
51 55
52 54
52 55
52 57
52 58
52 59
53 54
53 55
53 56
53 57
53 59
54 55
54 58
55 56
55 57
55 58
56 57
56 58
57 58
58 59
55 18 45 21 59 8
16 42 5 26 13 12
17 38 53 15 1 52
37 29 2 58 0 56
4 11 57 34 24 48
25 49 40 41 14 22
39 31 10 6 44 33
36 27 3 51 32 19
35 54 43 30 47 23
50 7 46 9 28 20
